db/data/2160518990130941253714897294741587313832.z3.out
sat
-------------------
1803.878550912
